HmaxDs = 0.000000
HmaxUB_percent = 1.301965
HmaxUB_real = 3536.931139
FTnetDs = 1.000000
FTnetUB_percent = 2.188823
FTnetUB_real = 10882.278264
TIFgap = 0.500000
LimCIPF = 67.369303365
SCIP version 1.1.0 [precision: 8 byte] [memory: block] [mode: optimized] [LP solver: Clp 1.8.2]
Copyright (c) 2002-2008 Konrad-Zuse-Zentrum fuer Informationstechnik Berlin (ZIB)

reading user parameter file </home/fabio/docs/hierarquia/models/scip.set>

read problem <data.N30.I1.s1.cluster4.T8.GL3.W1.TIFgap0.5.mps.gz>
============

original problem has 817 variables (420 bin, 0 int, 0 impl, 397 cont) and 255 constraints

solve problem
=============

presolving:
(round 1) 3 del vars, 3 del conss, 4 chg bounds, 0 chg sides, 49 chg coeffs, 0 upgd conss, 0 impls, 56 clqs
(round 2) 5 del vars, 3 del conss, 4 chg bounds, 1 chg sides, 49 chg coeffs, 0 upgd conss, 0 impls, 56 clqs
(round 3) 5 del vars, 3 del conss, 4 chg bounds, 3 chg sides, 49 chg coeffs, 0 upgd conss, 0 impls, 56 clqs
(round 4) 5 del vars, 4 del conss, 4 chg bounds, 3 chg sides, 49 chg coeffs, 57 upgd conss, 0 impls, 56 clqs
(round 5) 31 del vars, 4 del conss, 4 chg bounds, 3 chg sides, 49 chg coeffs, 57 upgd conss, 5645 impls, 53 clqs
(round 6) 31 del vars, 6 del conss, 4 chg bounds, 3 chg sides, 49 chg coeffs, 57 upgd conss, 5645 impls, 53 clqs
presolving (7 rounds):
 31 deleted vars, 6 deleted constraints, 4 tightened bounds, 0 added holes, 3 changed sides, 49 changed coefficients
 5645 implications, 53 cliques
presolved problem has 786 variables (394 bin, 0 int, 0 impl, 392 cont) and 249 constraints
      1 constraints of type <knapsack>
     54 constraints of type <setppc>
    194 constraints of type <linear>
Presolving Time: 0.20

 time | node  | left  |LP iter| mem |mdpt |frac |vars |cons |ccons|cols |rows |cuts |confs|strbr|  dualbound   | primalbound  |  gap   
  0.2s|     1 |     0 |   264 |2154k|   0 |  97 | 786 | 249 | 249 | 786 | 249 |   0 |   0 |   0 | 1.048914e+03 |      --      |    Inf 
  0.7s|     1 |     0 |  2279 |2390k|   0 |   - | 786 | 249 | 249 | 786 | 275 |  26 |   0 |   0 |      --      |      --      |   0.00%
  0.7s|     1 |     0 |  2279 |2390k|   0 |   - | 786 | 249 | 249 | 786 | 275 |  26 |   0 |   0 |      --      |      --      |   0.00%

SCIP Status        : problem is solved [infeasible]
Solving Time (sec) : 0.65
Solving Nodes      : 1
Primal Bound       : +1.00000000000000e+20 (0 solutions)
Dual Bound         : +1.00000000000000e+20
Gap                : 0.00 %

primal solution:
================

no solution available

Statistics
==========

SCIP Status        : problem is solved [infeasible]
Solving Time       :       0.65
Original Problem   :
  Problem name     : labtel
  Variables        : 817 (420 binary, 0 integer, 0 implicit integer, 397 continuous)
  Constraints      : 255 initial, 255 maximal
Presolved Problem  :
  Problem name     : t_labtel
  Variables        : 786 (394 binary, 0 integer, 0 implicit integer, 392 continuous)
  Constraints      : 249 initial, 249 maximal
Presolvers         :       Time  FixedVars   AggrVars   ChgTypes  ChgBounds   AddHoles    DelCons   ChgSides   ChgCoefs
  trivial          :       0.00          0          0          0          0          0          0          0          0
  dualfix          :       0.00          0          0          0          0          0          0          0          0
  boundshift       :       0.00          0          0          0          0          0          0          0          0
  inttobinary      :       0.00          0          0          0          0          0          0          0          0
  implics          :       0.00          0          0          0          0          0          0          0          0
  probing          :       0.18         26          0          0          0          0          0          0          0
  knapsack         :       0.00          0          0          0          0          0          0          0          0
  setppc           :       0.00          0          0          0          0          0          2          0          0
  linear           :       0.02          0          5          0          4          0          4          3         49
  root node        :          -          0          -          -          0          -          -          -          -
Constraints        :     Number  #Separate #Propagate    #EnfoLP    #EnfoPS    Cutoffs    DomReds       Cuts      Conss   Children
  integral         :          0          0          0          0          0          0          0          0          0          0
  knapsack         :          1          1       1063          0          0          0          0          0          0          0
  setppc           :         54          1       1063          0          0          0          0          0          0          0
  linear           :        194          1       1063          0          0         12          0          0          0          0
  countsols        :          0          0          0          0          0          0          0          0          0          0
Constraint Timings :  TotalTime   Separate  Propagate     EnfoLP     EnfoPS
  integral         :       0.00       0.00       0.00       0.00       0.00
  knapsack         :       0.00       0.00       0.00       0.00       0.00
  setppc           :       0.02       0.00       0.02       0.00       0.00
  linear           :       0.08       0.00       0.08       0.00       0.00
  countsols        :       0.00       0.00       0.00       0.00       0.00
Propagators        :       Time      Calls    Cutoffs    DomReds
  rootredcost      :       0.00          0          0          0
  pseudoobj        :       0.00          3          1          0
Conflict Analysis  :       Time      Calls    Success  Conflicts   Literals    Reconvs ReconvLits   LP Iters
  propagation      :       0.00          0          0          0        0.0          0        0.0          -
  infeasible LP    :       0.00          0          0          0        0.0          0        0.0          0
  bound exceed. LP :       0.00          0          0          0        0.0          0        0.0          0
  strong branching :       0.00          0          0          0        0.0          0        0.0          0
  pseudo solution  :       0.00          0          0          0        0.0          0        0.0          -
  applied globally :          -          -          -          0        0.0          -          -          -
  applied locally  :          -          -          -          0        0.0          -          -          -
Separators         :       Time      Calls    Cutoffs    DomReds       Cuts      Conss
  cut pool         :       0.00          0          -          -          0          -    (maximal pool size: 51)
  redcost          :       0.00          1          0          0          0          0
  impliedbounds    :       0.00          1          0          0          0          0
  intobj           :       0.00          0          0          0          0          0
  gomory           :       0.01          1          0          0         17          0
  strongcg         :       0.00          1          0          0          0          0
  cmir             :       0.03          1          0          0         27          0
  flowcover        :       0.11          1          0          0         18          0
  clique           :       0.00          1          0          0          0          0
  zerohalf         :       0.00          0          0          0          0          0
  mcf              :       0.00          0          0          0          0          0
Pricers            :       Time      Calls       Vars
  problem variables:       0.00          0          0
Branching Rules    :       Time      Calls    Cutoffs    DomReds       Cuts      Conss   Children
  pscost           :       0.00          0          0          0          0          0          0
  inference        :       0.00          0          0          0          0          0          0
  mostinf          :       0.00          0          0          0          0          0          0
  leastinf         :       0.00          0          0          0          0          0          0
  fullstrong       :       0.00          0          0          0          0          0          0
  allfullstrong    :       0.00          0          0          0          0          0          0
  random           :       0.00          0          0          0          0          0          0
  relpscost        :       0.00          0          0          0          0          0          0
Primal Heuristics  :       Time      Calls      Found
  LP solutions     :       0.00          -          0
  pseudo solutions :       0.00          -          0
  simplerounding   :       0.00          0          0
  rounding         :       0.01          1          0
  shifting         :       0.00          1          0
  intshifting      :       0.00          0          0
  oneopt           :       0.00          0          0
  fixandinfer      :       0.00          0          0
  feaspump         :       0.23          1          0
  coefdiving       :       0.00          0          0
  pscostdiving     :       0.00          0          0
  fracdiving       :       0.00          0          0
  veclendiving     :       0.00          0          0
  intdiving        :       0.00          0          0
  actconsdiving    :       0.00          0          0
  objpscostdiving  :       0.00          0          0
  rootsoldiving    :       0.00          0          0
  linesearchdiving :       0.00          0          0
  guideddiving     :       0.00          0          0
  octane           :       0.00          0          0
  rens             :       0.00          0          0
  rins             :       0.00          0          0
  localbranching   :       0.00          0          0
  mutation         :       0.00          0          0
  crossover        :       0.00          0          0
  dins             :       0.00          0          0
LP                 :       Time      Calls Iterations  Iter/call   Iter/sec
  primal LP        :       0.00          0          0       0.00          -
  dual LP          :       0.06          2        512     256.00    8533.33
  barrier LP       :       0.00          0          0       0.00          -
  diving/probing LP:       0.23         37       1767      47.76    7682.61
  strong branching :       0.00          0          0       0.00          -
    (at root node) :          -          0          0       0.00          -
  conflict analysis:       0.00          0          0       0.00          -
B&B Tree           :
  number of runs   :          1
  nodes            :          1
  nodes (total)    :          1
  nodes left       :          0
  max depth        :          0
  max depth (total):          0
  backtracks       :          0 (0.0%)
  delayed cutoffs  :          0
  repropagations   :          0 (0 domain reductions, 0 cutoffs)
  avg switch length:       2.00
  switching time   :       0.00
Solution           :
  Solutions found  :          0 (0 improvements)
  Primal Bound     : infeasible
  Dual Bound       :          -
  Gap              :       0.00 %
  Root Dual Bound  :          -
